%%
% Autogenerated by /opt/prj/battleships-ai/src/server/solver.py, instance 4 10x10 [1] #34 <g6c6n1w6zw>
% Source: https://www.puzzle-battleships.com/?size=4
%%

size = 10;
hints_num = 4;
hints = [| 1, 8 | 2, 2 | 3, 7 | 6, 1 |];
ships_num = 10;

constr_rows = [5, 2, 1, 3, 0, 2, 5, 0, 2, 0];
constr_cols = [2, 3, 3, 1, 2, 3, 2, 1, 2, 1];

given_ships = [|
<>, <>, <>, <>, 1, |
<>, <>, <>, <>, 1, |
<>, <>, <>, <>, 1, |
<>, <>, <>, <>, 1, |
<>, <>, <>, <>, 2, |
<>, <>, <>, <>, 2, |
<>, <>, <>, <>, 2, |
<>, <>, <>, <>, 3, |
<>, <>, <>, <>, 3, |
<>, <>, <>, <>, 4  |];

